\* Paris_Visit_-_Max._number_of_sites_(either_visit_Notre_Dame_Cathedral_or_Sainte_Chapelle) *\
Maximize
Max._number_of_sites: 5 CA + 4 ML
Subject To
Either_visit_TE_or_CA: CA + TE = 1
Max._duration: 4.5 CA + 3 ML <= 12
Max._price: 15.5 CA + 12 ML <= 65
Binaries
CA
ML
TE
End
